Geometry = xyzFormat {
2
junk
N 0.00000000 0.00000000 0.54944217 0.0
N 0.00000000 0.00000000 -0.54944217 0.0
}
Driver = {}
Hamiltonian = DFTB {
Scc = Yes
ShellResolvedSCC = Yes
SlaterKosterFiles = Type2FileNames {
Prefix = "skf/"
Separator = "-"
Suffix = ".skf"
}
MaxAngularMomentum {
N = "p"
}
}
Options {}
Analysis {
CalculateForces = No
}
